lbl,CUST NO.,READY TIME,XCOORD.,YCOORD.,DEMAND,DUE DATE,SERVICE TIME
17,186,0,3,135,20,1168,90
17,177,86,16,138,10,142,90
17,3,147,10,137,30,219,90
17,88,234,8,138,30,316,90
17,8,351,6,135,40,386,90
17,127,526,2,132,10,584,90
17,98,629,10,134,10,677,90
17,157,712,14,131,10,784,90
